NAME : single.2799.tour
COMMENT : Length = 2799
COMMENT : Found by LKH [Keld Helsgaun] Thu May  5 16:46:00 2022
TYPE : TOUR
DIMENSION : 19
TOUR_SECTION
1
19
16
17
18
15
14
11
10
13
4
3
2
5
12
7
6
9
8
-1
EOF
